50
19681

577 177
393 101
674 963
450 527
510 47
92 312
150 868
397 571
493 847
425 863
900 951
160 151
215 890
839 831
614 19
861 71
206 294
565 213
753 489
112 798
567 16
264 329
461 846
527 611
422 92
413 595
940 560
717 363
188 808
692 750
698 38
398 249
525 297
886 540
934 725
882 426
940 974
545 11
601 435
852 703
32 722
864 321
823 674
958 769
268 191
213 553
387 504
685 590
77 878
917 836
